202 10
2 2 2 2 2 2 2 2 2 2
0  0 0 0 0 0 0 0 0 0 0  20 2 12 22 32 42 52 62 72 82 92 102 112 122 132 142 152 162 172 182 192
18  0 0 0 0 1 0 0 0 0 0  1 3
21  0 0 0 0 0 0 0 1 0 0  1 4
41  0 0 0 0 0 0 0 0 0 1  1 5
45  0 0 1 0 0 0 0 0 0 0  1 6
38  0 0 0 1 0 0 0 0 0 0  1 7
50  0 0 0 0 0 0 0 0 1 0  1 8
84  0 0 0 0 0 1 0 0 0 0  1 9
29  0 0 0 0 0 0 1 0 0 0  1 10
23  0 1 0 0 0 0 0 0 0 0  1 11
82  1 0 0 0 0 0 0 0 0 0  1 202
57  0 0 0 0 0 0 0 0 1 0  1 13
16  0 0 0 0 0 1 0 0 0 0  1 14
52  0 1 0 0 0 0 0 0 0 0  1 15
74  0 0 0 0 0 0 0 1 0 0  1 16
38  0 0 1 0 0 0 0 0 0 0  1 17
54  0 0 0 1 0 0 0 0 0 0  1 18
62  0 0 0 0 0 0 1 0 0 0  1 19
37  0 0 0 0 0 0 0 0 0 1  1 20
54  0 0 0 0 1 0 0 0 0 0  1 21
52  1 0 0 0 0 0 0 0 0 0  1 202
30  0 0 1 0 0 0 0 0 0 0  1 23
79  0 0 0 0 1 0 0 0 0 0  1 24
68  0 0 0 1 0 0 0 0 0 0  1 25
61  0 1 0 0 0 0 0 0 0 0  1 26
11  0 0 0 0 0 0 0 0 1 0  1 27
89  0 0 0 0 0 0 1 0 0 0  1 28
89  0 0 0 0 0 0 0 1 0 0  1 29
81  1 0 0 0 0 0 0 0 0 0  1 30
81  0 0 0 0 0 0 0 0 0 1  1 31
57  0 0 0 0 0 1 0 0 0 0  1 202
91  1 0 0 0 0 0 0 0 0 0  1 33
8  0 0 0 0 0 0 0 0 1 0  1 34
33  0 0 0 1 0 0 0 0 0 0  1 35
55  0 0 0 0 0 0 0 1 0 0  1 36
20  0 0 0 0 0 1 0 0 0 0  1 37
20  0 0 1 0 0 0 0 0 0 0  1 38
32  0 0 0 0 1 0 0 0 0 0  1 39
84  0 0 0 0 0 0 1 0 0 0  1 40
66  0 1 0 0 0 0 0 0 0 0  1 41
24  0 0 0 0 0 0 0 0 0 1  1 202
40  0 0 0 0 0 0 0 0 0 1  1 43
7  1 0 0 0 0 0 0 0 0 0  1 44
19  0 0 0 0 1 0 0 0 0 0  1 45
7  0 0 0 0 0 0 0 0 1 0  1 46
83  0 0 0 0 0 0 1 0 0 0  1 47
64  0 0 1 0 0 0 0 0 0 0  1 48
56  0 0 0 0 0 1 0 0 0 0  1 49
54  0 0 0 1 0 0 0 0 0 0  1 50
8  0 0 0 0 0 0 0 1 0 0  1 51
39  0 1 0 0 0 0 0 0 0 0  1 202
91  0 0 0 1 0 0 0 0 0 0  1 53
64  0 0 1 0 0 0 0 0 0 0  1 54
40  0 0 0 0 0 1 0 0 0 0  1 55
63  1 0 0 0 0 0 0 0 0 0  1 56
98  0 0 0 0 0 0 0 1 0 0  1 57
74  0 0 0 0 1 0 0 0 0 0  1 58
61  0 0 0 0 0 0 0 0 1 0  1 59
6  0 1 0 0 0 0 0 0 0 0  1 60
42  0 0 0 0 0 0 1 0 0 0  1 61
15  0 0 0 0 0 0 0 0 0 1  1 202
80  0 1 0 0 0 0 0 0 0 0  1 63
39  0 0 0 0 0 0 0 1 0 0  1 64
24  0 0 0 0 0 0 0 0 1 0  1 65
75  0 0 0 1 0 0 0 0 0 0  1 66
75  0 0 0 0 1 0 0 0 0 0  1 67
6  0 0 0 0 0 1 0 0 0 0  1 68
44  0 0 0 0 0 0 1 0 0 0  1 69
26  1 0 0 0 0 0 0 0 0 0  1 70
87  0 0 1 0 0 0 0 0 0 0  1 71
22  0 0 0 0 0 0 0 0 0 1  1 202
15  0 1 0 0 0 0 0 0 0 0  1 73
43  0 0 0 0 0 0 0 1 0 0  1 74
20  0 0 1 0 0 0 0 0 0 0  1 75
12  1 0 0 0 0 0 0 0 0 0  1 76
26  0 0 0 0 0 0 0 0 1 0  1 77
61  0 0 0 0 0 0 1 0 0 0  1 78
79  0 0 0 1 0 0 0 0 0 0  1 79
22  0 0 0 0 0 0 0 0 0 1  1 80
8  0 0 0 0 0 1 0 0 0 0  1 81
80  0 0 0 0 1 0 0 0 0 0  1 202
62  0 0 1 0 0 0 0 0 0 0  1 83
96  0 0 0 1 0 0 0 0 0 0  1 84
22  0 0 0 0 1 0 0 0 0 0  1 85
5  0 0 0 0 0 0 0 0 0 1  1 86
63  1 0 0 0 0 0 0 0 0 0  1 87
33  0 0 0 0 0 0 1 0 0 0  1 88
10  0 0 0 0 0 0 0 1 0 0  1 89
18  0 0 0 0 0 0 0 0 1 0  1 90
36  0 1 0 0 0 0 0 0 0 0  1 91
40  0 0 0 0 0 1 0 0 0 0  1 202
96  0 1 0 0 0 0 0 0 0 0  1 93
89  1 0 0 0 0 0 0 0 0 0  1 94
64  0 0 0 0 0 1 0 0 0 0  1 95
95  0 0 0 1 0 0 0 0 0 0  1 96
23  0 0 0 0 0 0 0 0 0 1  1 97
18  0 0 0 0 0 0 0 1 0 0  1 98
15  0 0 0 0 0 0 0 0 1 0  1 99
64  0 0 1 0 0 0 0 0 0 0  1 100
38  0 0 0 0 0 0 1 0 0 0  1 101
8  0 0 0 0 1 0 0 0 0 0  1 202
18  0 0 0 0 1 0 0 0 0 0  1 103
21  0 0 0 0 0 0 0 1 0 0  1 104
41  0 0 0 0 0 0 0 0 0 1  1 105
45  0 0 1 0 0 0 0 0 0 0  1 106
38  0 0 0 1 0 0 0 0 0 0  1 107
50  0 0 0 0 0 0 0 0 1 0  1 108
84  0 0 0 0 0 1 0 0 0 0  1 109
29  0 0 0 0 0 0 1 0 0 0  1 110
23  0 1 0 0 0 0 0 0 0 0  1 111
82  1 0 0 0 0 0 0 0 0 0  1 202
57  0 0 0 0 0 0 0 0 1 0  1 113
16  0 0 0 0 0 1 0 0 0 0  1 114
52  0 1 0 0 0 0 0 0 0 0  1 115
74  0 0 0 0 0 0 0 1 0 0  1 116
38  0 0 1 0 0 0 0 0 0 0  1 117
54  0 0 0 1 0 0 0 0 0 0  1 118
62  0 0 0 0 0 0 1 0 0 0  1 119
37  0 0 0 0 0 0 0 0 0 1  1 120
54  0 0 0 0 1 0 0 0 0 0  1 121
52  1 0 0 0 0 0 0 0 0 0  1 202
30  0 0 1 0 0 0 0 0 0 0  1 123
79  0 0 0 0 1 0 0 0 0 0  1 124
68  0 0 0 1 0 0 0 0 0 0  1 125
61  0 1 0 0 0 0 0 0 0 0  1 126
11  0 0 0 0 0 0 0 0 1 0  1 127
89  0 0 0 0 0 0 1 0 0 0  1 128
89  0 0 0 0 0 0 0 1 0 0  1 129
81  1 0 0 0 0 0 0 0 0 0  1 130
81  0 0 0 0 0 0 0 0 0 1  1 131
57  0 0 0 0 0 1 0 0 0 0  1 202
91  1 0 0 0 0 0 0 0 0 0  1 133
8  0 0 0 0 0 0 0 0 1 0  1 134
33  0 0 0 1 0 0 0 0 0 0  1 135
55  0 0 0 0 0 0 0 1 0 0  1 136
20  0 0 0 0 0 1 0 0 0 0  1 137
20  0 0 1 0 0 0 0 0 0 0  1 138
32  0 0 0 0 1 0 0 0 0 0  1 139
84  0 0 0 0 0 0 1 0 0 0  1 140
66  0 1 0 0 0 0 0 0 0 0  1 141
24  0 0 0 0 0 0 0 0 0 1  1 202
40  0 0 0 0 0 0 0 0 0 1  1 143
7  1 0 0 0 0 0 0 0 0 0  1 144
19  0 0 0 0 1 0 0 0 0 0  1 145
7  0 0 0 0 0 0 0 0 1 0  1 146
83  0 0 0 0 0 0 1 0 0 0  1 147
64  0 0 1 0 0 0 0 0 0 0  1 148
56  0 0 0 0 0 1 0 0 0 0  1 149
54  0 0 0 1 0 0 0 0 0 0  1 150
8  0 0 0 0 0 0 0 1 0 0  1 151
39  0 1 0 0 0 0 0 0 0 0  1 202
91  0 0 0 1 0 0 0 0 0 0  1 153
64  0 0 1 0 0 0 0 0 0 0  1 154
40  0 0 0 0 0 1 0 0 0 0  1 155
63  1 0 0 0 0 0 0 0 0 0  1 156
98  0 0 0 0 0 0 0 1 0 0  1 157
74  0 0 0 0 1 0 0 0 0 0  1 158
61  0 0 0 0 0 0 0 0 1 0  1 159
6  0 1 0 0 0 0 0 0 0 0  1 160
42  0 0 0 0 0 0 1 0 0 0  1 161
15  0 0 0 0 0 0 0 0 0 1  1 202
80  0 1 0 0 0 0 0 0 0 0  1 163
39  0 0 0 0 0 0 0 1 0 0  1 164
24  0 0 0 0 0 0 0 0 1 0  1 165
75  0 0 0 1 0 0 0 0 0 0  1 166
75  0 0 0 0 1 0 0 0 0 0  1 167
6  0 0 0 0 0 1 0 0 0 0  1 168
44  0 0 0 0 0 0 1 0 0 0  1 169
26  1 0 0 0 0 0 0 0 0 0  1 170
87  0 0 1 0 0 0 0 0 0 0  1 171
22  0 0 0 0 0 0 0 0 0 1  1 202
15  0 1 0 0 0 0 0 0 0 0  1 173
43  0 0 0 0 0 0 0 1 0 0  1 174
20  0 0 1 0 0 0 0 0 0 0  1 175
12  1 0 0 0 0 0 0 0 0 0  1 176
26  0 0 0 0 0 0 0 0 1 0  1 177
61  0 0 0 0 0 0 1 0 0 0  1 178
79  0 0 0 1 0 0 0 0 0 0  1 179
22  0 0 0 0 0 0 0 0 0 1  1 180
8  0 0 0 0 0 1 0 0 0 0  1 181
80  0 0 0 0 1 0 0 0 0 0  1 202
62  0 0 1 0 0 0 0 0 0 0  1 183
96  0 0 0 1 0 0 0 0 0 0  1 184
22  0 0 0 0 1 0 0 0 0 0  1 185
5  0 0 0 0 0 0 0 0 0 1  1 186
63  1 0 0 0 0 0 0 0 0 0  1 187
33  0 0 0 0 0 0 1 0 0 0  1 188
10  0 0 0 0 0 0 0 1 0 0  1 189
18  0 0 0 0 0 0 0 0 1 0  1 190
36  0 1 0 0 0 0 0 0 0 0  1 191
40  0 0 0 0 0 1 0 0 0 0  1 202
96  0 1 0 0 0 0 0 0 0 0  1 193
89  1 0 0 0 0 0 0 0 0 0  1 194
64  0 0 0 0 0 1 0 0 0 0  1 195
95  0 0 0 1 0 0 0 0 0 0  1 196
23  0 0 0 0 0 0 0 0 0 1  1 197
18  0 0 0 0 0 0 0 1 0 0  1 198
15  0 0 0 0 0 0 0 0 1 0  1 199
64  0 0 1 0 0 0 0 0 0 0  1 200
38  0 0 0 0 0 0 1 0 0 0  1 201
8  0 0 0 0 1 0 0 0 0 0  1 202
0  0 0 0 0 0 0 0 0 0 0  0
